\* NFL *\
Maximize
OBJ: 14.1 x0 + 7.7 x1 + 22 x10 + 16.3 x100 + 14.6 x101 + 1.8 x103 + 10.4 x104
 + 9.8 x105 + 12 x106 + 12.1 x107 + 12.52 x109 + 15.64 x11 + 6.7 x111
 + 2.04 x112 + 1.1 x116 + 11.48 x120 + 0.1 x121 + 5.22 x123 + 10.7 x124
 + 14.6 x125 + 16.2 x127 + 4 x128 + 10.3 x129 + 9.5 x13 + 11.7 x130
 + 20.6 x131 + 0.9 x134 + 3.32 x135 + 20.94 x14 + 6.2 x142 + 11.6 x146
 + 6.6 x147 + 3 x148 + 20.54 x15 - 0.22 x150 + 0.3 x151 + 9.9 x152 + 11.7 x155
 + 7.1 x157 + 8 x158 + 12.9 x159 + 11.9 x16 + 0.6 x160 + 25.3 x161 + 17.6 x163
 + 5.9 x164 + 7.1 x165 + 2.3 x166 + 18.68 x17 + 6.2 x173 + 1.3 x175 + 5.5 x176
 + 6 x177 + 9.5 x179 + 14.3 x18 + 9.8 x181 + 2.6 x184 + x186 + 18.9 x19
 + 4.2 x190 + 3.8 x191 + 7 x195 + 1.8 x196 + 6.6 x197 + 14.1 x198 + 22.9 x199
 + 32.2 x2 + 5.3 x20 + 1.8 x201 + 4 x202 + 8.1 x203 + 4 x204 + 7.2 x205
 + 9.5 x207 + 3.3 x208 + 49.6 x21 + 6.4 x210 + 12.9 x213 + 3 x214 + 7.6 x215
 + 1.1 x216 + 7.3 x217 + 12.4 x218 + 15.3 x219 + 20.6 x22 + 11.5 x220
 + 1.9 x222 + 15.6 x224 + 1.1 x226 + 4.5 x227 + 2.2 x228 + 25 x229 + 9.32 x23
 + 15 x232 + 6.3 x233 + 3.4 x234 + 4 x235 + 3.1 x236 + 24.4 x24 + 12.8 x240
 + 13.3 x242 + 3.1 x243 + 7.8 x245 + 13.3 x247 + 2 x248 + 16.72 x25
 + 10.1 x251 + 1.8 x252 + 5.1 x254 + 23.8 x255 + 0.9 x257 + 6.2 x259 + 10 x26
 + 8.9 x260 + 5 x261 + 18.9 x262 + 8.3 x263 + 2 x264 + 2.3 x265 + 2 x267
 + 8.7 x268 + 3.3 x269 + 6.3 x27 + 1.7 x270 + 10.6 x271 + 16 x274 + 9.4 x276
 + 6.3 x279 + 14.14 x28 + 6.7 x280 + 22.1 x281 + 3 x283 + 8.4 x284 + 1.5 x285
 + 0.1 x286 + 28 x287 + 16.4 x288 + 13.4 x29 + 0.2 x290 + 5.2 x295 + 3.6 x297
 + 10.6 x3 + 24.4 x30 + 15.3 x302 + 1.5 x303 + 7.1 x306 + 18.84 x31 + 1.3 x310
 + 1.1 x311 + 2.2 x319 + 7.1 x320 + 1.2 x327 + 8 x33 + 0.2 x336 + 7.2 x339
 + 18 x341 + 3.1 x344 + 29.8 x35 + 2.5 x352 + 5.7 x355 + 0.7 x356 + 27.7 x36
 + 3.7 x363 + 3.8 x368 + 13.6 x37 + 1.7 x372 + 4 x377 + 17.1 x378 + 11.96 x38
 + 28 x386 + 2.1 x388 + 10.2 x39 + 0.1 x390 + 1.7 x394 + 3.7 x395 + 23.9 x4
 + 12.6 x40 + 1.8 x401 + 5.2 x416 + 2.9 x417 + 23.88 x42 + 6.1 x421 + 3 x422
 + 22 x423 + 7.9 x424 + 12 x426 + 8 x427 + 9 x429 + 19.7 x43 + 4.5 x430
 + 2 x431 + 5.4 x433 + 9.5 x436 + 6.4 x439 + 15.6 x44 + 12 x440 + 6.4 x441
 + 3.7 x442 + 2.4 x444 + 8.2 x445 + 1.5 x446 + 4 x447 + 11.7 x45 + 3.2 x451
 + 2.8 x459 + 17.5 x46 + 2.1 x463 + x467 + 5.1 x478 + 18.68 x48 + 4.5 x489
 + 14.5 x49 + 3 x493 + 2.2 x496 + 4.9 x498 + 11.8 x5 + 19.3 x50 + 2 x504
 + 7.7 x505 + 5 x506 + 3.8 x507 + 28.08 x51 + 1.9 x511 + 3 x515 + 2 x516
 + 4 x517 + 9 x518 + 2 x519 + 34.02 x52 + 4 x521 + 8.8 x53 + 22.5 x54
 + 3.5 x55 + 12.5 x56 + 3.5 x57 + 17.12 x58 + 7.7 x59 + 17.2 x6 + 3.8 x61
 + 2.5 x62 + 28.54 x63 + 3.4 x64 + 19.76 x68 + 7.7 x69 + 17.3 x70 + 9.8 x71
 + 7.7 x72 + 7.84 x73 + 5.6 x75 + 8.6 x76 + 10.8 x77 + 14 x78 + 19.58 x79
 + 10.68 x8 + 9.4 x80 + 19 x81 + 19.44 x82 + 13.6 x83 + 8.2 x84 + 27.7 x85
 + 8.9 x86 + 2 x88 + 10.6 x89 + 20.9 x9 + 12.1 x90 + 23.66 x92 + 3.4 x93
 + 3.8 x94 + 14.1 x95 + 13.7 x96 + 8.2 x97 + 2.7 x98 + 9.8 x99
Subject To
_C1: 10000 x0 + 9800 x1 + 7800 x10 + 4700 x100 + 4700 x101 + 4700 x102
 + 4700 x103 + 4700 x104 + 4700 x105 + 4700 x106 + 4600 x107 + 4600 x108
 + 4600 x109 + 7700 x11 + 4600 x110 + 4500 x111 + 4500 x112 + 4500 x113
 + 4500 x114 + 4500 x115 + 4500 x116 + 4500 x117 + 4500 x118 + 4500 x119
 + 7700 x12 + 4500 x120 + 4500 x121 + 4500 x122 + 4500 x123 + 4500 x124
 + 4500 x125 + 4500 x126 + 4400 x127 + 4400 x128 + 4400 x129 + 7500 x13
 + 4400 x130 + 4400 x131 + 4400 x132 + 4400 x133 + 4400 x134 + 4300 x135
 + 4300 x136 + 4300 x137 + 4300 x138 + 4300 x139 + 7500 x14 + 4300 x140
 + 4300 x141 + 4300 x142 + 4300 x143 + 4300 x144 + 4200 x145 + 4200 x146
 + 4200 x147 + 4200 x148 + 4200 x149 + 7400 x15 + 4200 x150 + 4200 x151
 + 4200 x152 + 4200 x153 + 4200 x154 + 4200 x155 + 4200 x156 + 4100 x157
 + 4100 x158 + 4100 x159 + 7300 x16 + 4100 x160 + 4100 x161 + 4100 x162
 + 4100 x163 + 4100 x164 + 4100 x165 + 4000 x166 + 4000 x167 + 4000 x168
 + 4000 x169 + 7200 x17 + 4000 x170 + 4000 x171 + 4000 x172 + 4000 x173
 + 4000 x174 + 4000 x175 + 4000 x176 + 4000 x177 + 4000 x178 + 4000 x179
 + 7100 x18 + 4000 x180 + 4000 x181 + 4000 x182 + 4000 x183 + 4000 x184
 + 4000 x185 + 4000 x186 + 4000 x187 + 4000 x188 + 4000 x189 + 7000 x19
 + 4000 x190 + 4000 x191 + 4000 x192 + 4000 x193 + 4000 x194 + 4000 x195
 + 4000 x196 + 4000 x197 + 4000 x198 + 4000 x199 + 9400 x2 + 6900 x20
 + 4000 x200 + 3900 x201 + 3900 x202 + 3900 x203 + 3900 x204 + 3900 x205
 + 3900 x206 + 3900 x207 + 3900 x208 + 3900 x209 + 6800 x21 + 3900 x210
 + 3900 x211 + 3900 x212 + 3900 x213 + 3900 x214 + 3900 x215 + 3900 x216
 + 3900 x217 + 3800 x218 + 3800 x219 + 6800 x22 + 3800 x220 + 3800 x221
 + 3800 x222 + 3800 x223 + 3800 x224 + 3800 x225 + 3800 x226 + 3800 x227
 + 3800 x228 + 3700 x229 + 6800 x23 + 3700 x230 + 3700 x231 + 3600 x232
 + 3600 x233 + 3600 x234 + 3600 x235 + 3600 x236 + 3600 x237 + 3600 x238
 + 3600 x239 + 6800 x24 + 3600 x240 + 3600 x241 + 3500 x242 + 3500 x243
 + 3500 x244 + 3500 x245 + 3500 x246 + 3500 x247 + 3500 x248 + 3500 x249
 + 6700 x25 + 3500 x250 + 3500 x251 + 3500 x252 + 3500 x253 + 3500 x254
 + 3500 x255 + 3500 x256 + 3400 x257 + 3400 x258 + 3400 x259 + 6700 x26
 + 3400 x260 + 3400 x261 + 3400 x262 + 3400 x263 + 3400 x264 + 3400 x265
 + 3300 x266 + 3300 x267 + 3300 x268 + 3300 x269 + 6600 x27 + 3300 x270
 + 3300 x271 + 3300 x272 + 3300 x273 + 3300 x274 + 3300 x275 + 3300 x276
 + 3200 x277 + 3200 x278 + 3200 x279 + 6500 x28 + 3200 x280 + 3200 x281
 + 3200 x282 + 3200 x283 + 3200 x284 + 3100 x285 + 3100 x286 + 3100 x287
 + 3100 x288 + 3100 x289 + 6500 x29 + 3000 x290 + 3000 x291 + 3000 x292
 + 3000 x293 + 3000 x294 + 3000 x295 + 3000 x296 + 3000 x297 + 3000 x298
 + 3000 x299 + 9200 x3 + 6500 x30 + 3000 x300 + 3000 x301 + 3000 x302
 + 3000 x303 + 3000 x304 + 3000 x305 + 3000 x306 + 3000 x307 + 3000 x308
 + 3000 x309 + 6400 x31 + 3000 x310 + 3000 x311 + 3000 x312 + 3000 x313
 + 3000 x314 + 3000 x315 + 3000 x316 + 3000 x317 + 3000 x318 + 3000 x319
 + 6400 x32 + 3000 x320 + 3000 x321 + 3000 x322 + 3000 x323 + 3000 x324
 + 3000 x325 + 3000 x326 + 3000 x327 + 3000 x328 + 3000 x329 + 6300 x33
 + 3000 x330 + 3000 x331 + 3000 x332 + 3000 x333 + 3000 x334 + 3000 x335
 + 3000 x336 + 3000 x337 + 3000 x338 + 3000 x339 + 6300 x34 + 3000 x340
 + 3000 x341 + 3000 x342 + 3000 x343 + 3000 x344 + 3000 x345 + 3000 x346
 + 3000 x347 + 3000 x348 + 3000 x349 + 6200 x35 + 3000 x350 + 3000 x351
 + 3000 x352 + 3000 x353 + 3000 x354 + 3000 x355 + 3000 x356 + 3000 x357
 + 3000 x358 + 3000 x359 + 6100 x36 + 3000 x360 + 3000 x361 + 3000 x362
 + 3000 x363 + 3000 x364 + 3000 x365 + 3000 x366 + 3000 x367 + 3000 x368
 + 3000 x369 + 6100 x37 + 3000 x370 + 3000 x371 + 3000 x372 + 3000 x373
 + 3000 x374 + 3000 x375 + 3000 x376 + 3000 x377 + 3000 x378 + 3000 x379
 + 6000 x38 + 3000 x380 + 3000 x381 + 3000 x382 + 3000 x383 + 3000 x384
 + 3000 x385 + 3000 x386 + 3000 x387 + 3000 x388 + 3000 x389 + 6000 x39
 + 3000 x390 + 3000 x391 + 3000 x392 + 3000 x393 + 3000 x394 + 3000 x395
 + 3000 x396 + 3000 x397 + 3000 x398 + 3000 x399 + 8600 x4 + 6000 x40
 + 3000 x400 + 3000 x401 + 3000 x402 + 3000 x403 + 3000 x404 + 3000 x405
 + 3000 x406 + 3000 x407 + 3000 x408 + 3000 x409 + 5900 x41 + 3000 x410
 + 3000 x411 + 3000 x412 + 3000 x413 + 3000 x414 + 3000 x415 + 3000 x416
 + 3000 x417 + 3000 x418 + 3000 x419 + 5900 x42 + 3000 x420 + 2900 x421
 + 2900 x422 + 2900 x423 + 2900 x424 + 2900 x425 + 2900 x426 + 2800 x427
 + 2800 x428 + 2700 x429 + 5900 x43 + 2700 x430 + 2700 x431 + 2700 x432
 + 2700 x433 + 2700 x434 + 2600 x435 + 2600 x436 + 2600 x437 + 2600 x438
 + 2600 x439 + 5900 x44 + 2600 x440 + 2600 x441 + 2600 x442 + 2500 x443
 + 2500 x444 + 2500 x445 + 2500 x446 + 2500 x447 + 2500 x448 + 2500 x449
 + 5900 x45 + 2500 x450 + 2500 x451 + 2500 x452 + 2500 x453 + 2500 x454
 + 2500 x455 + 2500 x456 + 2500 x457 + 2500 x458 + 2500 x459 + 5900 x46
 + 2500 x460 + 2500 x461 + 2500 x462 + 2500 x463 + 2500 x464 + 2500 x465
 + 2500 x466 + 2500 x467 + 2500 x468 + 2500 x469 + 5800 x47 + 2500 x470
 + 2500 x471 + 2500 x472 + 2500 x473 + 2500 x474 + 2500 x475 + 2500 x476
 + 2500 x477 + 2500 x478 + 2500 x479 + 5800 x48 + 2500 x480 + 2500 x481
 + 2500 x482 + 2500 x483 + 2500 x484 + 2500 x485 + 2500 x486 + 2500 x487
 + 2500 x488 + 2500 x489 + 5800 x49 + 2500 x490 + 2500 x491 + 2500 x492
 + 2500 x493 + 2500 x494 + 2500 x495 + 2500 x496 + 2500 x497 + 2500 x498
 + 2500 x499 + 8200 x5 + 5800 x50 + 2500 x500 + 2500 x501 + 2500 x502
 + 2500 x503 + 2500 x504 + 2500 x505 + 2500 x506 + 2500 x507 + 2500 x508
 + 2500 x509 + 5800 x51 + 2500 x510 + 2500 x511 + 2500 x512 + 2500 x513
 + 2500 x514 + 2400 x515 + 2300 x516 + 2300 x517 + 2300 x518 + 2200 x519
 + 5700 x52 + 2100 x520 + 2000 x521 + 5700 x53 + 5700 x54 + 5600 x55
 + 5600 x56 + 5600 x57 + 5600 x58 + 5600 x59 + 8100 x6 + 5500 x60 + 5500 x61
 + 5500 x62 + 5500 x63 + 5500 x64 + 5500 x65 + 5400 x66 + 5400 x67 + 5300 x68
 + 5300 x69 + 8000 x7 + 5300 x70 + 5300 x71 + 5300 x72 + 5200 x73 + 5200 x74
 + 5200 x75 + 5200 x76 + 5200 x77 + 5100 x78 + 5100 x79 + 7900 x8 + 5100 x80
 + 5100 x81 + 5100 x82 + 5000 x83 + 5000 x84 + 5000 x85 + 5000 x86 + 5000 x87
 + 5000 x88 + 4900 x89 + 7900 x9 + 4900 x90 + 4900 x91 + 4900 x92 + 4900 x93
 + 4900 x94 + 4900 x95 + 4900 x96 + 4800 x97 + 4800 x98 + 4800 x99 <= 50000
_C10: - x201 - x285 - x290 - x291 - x292 - x298 + x73 - x83 <= 0
_C100: 4 x63 <= 10
_C101: 3 x9 <= 10
_C102: x10 + x131 + x161 + x21 + x229 + x281 + x36 + x63 + x9 <= 3
_C103: 2 x10 <= 10
_C104: 4 x21 <= 10
_C105: 8 x287 <= 10
_C106: 4 x288 <= 10
_C107: 2 x35 <= 10
_C108: 5 x378 <= 10
_C109: 3 x52 <= 10
_C11: - x106 - x276 - x413 - x414 - x7 + x72 - x88 <= 0
_C110: 4 x54 <= 10
_C111: 3 x9 <= 10
_C112: x10 + x21 + x287 + x288 + x35 + x378 + x52 + x54 + x9 <= 3
_C113: 3 x163 <= 10
_C114: 2 x21 <= 10
_C115: 9 x229 <= 10
_C116: 4 x24 <= 10
_C117: 5 x255 <= 10
_C118: 4 x4 <= 10
_C119: 3 x43 <= 10
_C12: - x107 - x128 - x159 - x234 + x31 - x318 <= 0
_C120: 2 x63 <= 10
_C121: 4 x85 <= 10
_C122: x163 + x21 + x229 + x24 + x255 + x4 + x43 + x63 + x85 <= 3
_C123: 4 x131 <= 10
_C124: 4 x161 <= 10
_C125: 4 x2 <= 10
_C126: 5 x21 <= 10
_C127: 10 x24 <= 10
_C128: 6 x287 <= 10
_C129: 5 x288 <= 10
_C13: x11 - x113 - x13 - x269 - x289 - x339 - x99 <= 0
_C130: 3 x42 <= 10
_C131: 2 x43 <= 10
_C132: x131 + x161 + x2 + x21 + x24 + x287 + x288 + x42 + x43 <= 3
_C133: 3 x2 <= 10
_C134: 6 x21 <= 10
_C135: 11 x22 <= 10
_C136: 2 x229 <= 10
_C137: 5 x281 <= 10
_C138: 5 x35 <= 10
_C139: 6 x378 <= 10
_C14: - x142 - x240 - x27 - x377 - x383 - x385 + x58 <= 0
_C140: 4 x43 <= 10
_C141: 4 x92 <= 10
_C142: x2 + x21 + x22 + x229 + x281 + x35 + x378 + x43 + x92 <= 3
_C143: 2 x21 <= 10
_C144: 12 x24 <= 10
_C145: 7 x288 <= 10
_C146: 4 x30 <= 10
_C147: 4 x386 <= 10
_C148: 3 x51 <= 10
_C149: 4 x81 <= 10
_C15: - x209 - x335 - x5 - x57 + x8 - x81 <= 0
_C150: 2 x85 <= 10
_C151: 5 x9 <= 10
_C152: x21 + x24 + x288 + x30 + x386 + x51 + x81 + x85 + x9 <= 3
_C153: 4 x10 <= 10
_C154: 5 x131 <= 10
_C155: 5 x199 <= 10
_C156: 5 x21 <= 10
_C157: 13 x262 <= 10
_C158: 3 x386 <= 10
_C159: 4 x4 <= 10
_C16: - x203 - x243 - x299 - x304 - x305 - x306 + x68 <= 0
_C160: 4 x42 <= 10
_C161: 3 x85 <= 10
_C162: x10 + x131 + x199 + x21 + x262 + x386 + x4 + x42 + x85 <= 3
_C163: 6 x21 <= 10
_C164: 14 x35 <= 10
_C165: 7 x36 <= 10
_C166: 5 x423 <= 10
_C167: 3 x43 <= 10
_C168: 5 x54 <= 10
_C169: 4 x63 <= 10
_C17: - x152 - x196 + x23 - x26 - x397 - x400 <= 0
_C170: 5 x70 <= 10
_C171: 3 x81 <= 10
_C172: x21 + x35 + x36 + x423 + x43 + x54 + x63 + x70 + x81 <= 3
_C173: 3 x19 <= 10
_C174: 2 x199 <= 10
_C175: 6 x21 <= 10
_C176: 15 x229 <= 10
_C177: 6 x302 <= 10
_C178: 2 x36 <= 10
_C179: 6 x50 <= 10
_C18: x109 - x184 - x210 - x246 - x352 - x355 - x358 - x359 <= 0
_C180: 2 x51 <= 10
_C181: 5 x85 <= 10
_C182: x19 + x199 + x21 + x229 + x302 + x36 + x50 + x51 + x85 <= 3
_C183: 7 x131 <= 10
_C184: 6 x21 <= 10
_C185: 16 x255 <= 10
_C186: 5 x287 <= 10
_C187: 6 x30 <= 10
_C188: 5 x36 <= 10
_C189: 7 x378 <= 10
_C19: - x2 - x236 + x25 - x342 - x345 - x350 - x64 <= 0
_C190: 5 x50 <= 10
_C191: 3 x92 <= 10
_C192: x131 + x21 + x255 + x287 + x30 + x36 + x378 + x50 + x92 <= 3
_C193: 3 x131 <= 10
_C194: 7 x2 <= 10
_C195: 7 x21 <= 10
_C196: 17 x268 <= 10
_C197: 2 x281 <= 10
_C198: 6 x4 <= 10
_C199: 5 x423 <= 10
_C2: x0 + x1 + x10 + x100 + x101 + x102 + x103 + x104 + x105 + x106 + x107
 + x108 + x109 + x11 + x110 + x111 + x112 + x113 + x114 + x115 + x116 + x117
 + x118 + x119 + x12 + x120 + x121 + x122 + x123 + x124 + x125 + x126 + x127
 + x128 + x129 + x13 + x130 + x131 + x132 + x133 + x134 + x135 + x136 + x137
 + x138 + x139 + x14 + x140 + x141 + x142 + x143 + x144 + x145 + x146 + x147
 + x148 + x149 + x15 + x150 + x151 + x152 + x153 + x154 + x155 + x156 + x157
 + x158 + x159 + x16 + x160 + x161 + x162 + x163 + x164 + x165 + x166 + x167
 + x168 + x169 + x17 + x170 + x171 + x172 + x173 + x174 + x175 + x176 + x177
 + x178 + x179 + x18 + x180 + x181 + x182 + x183 + x184 + x185 + x186 + x187
 + x188 + x189 + x19 + x190 + x191 + x192 + x193 + x194 + x195 + x196 + x197
 + x198 + x199 + x2 + x20 + x200 + x201 + x202 + x203 + x204 + x205 + x206
 + x207 + x208 + x209 + x21 + x210 + x211 + x212 + x213 + x214 + x215 + x216
 + x217 + x218 + x219 + x22 + x220 + x221 + x222 + x223 + x224 + x225 + x226
 + x227 + x228 + x229 + x23 + x230 + x231 + x232 + x233 + x234 + x235 + x236
 + x237 + x238 + x239 + x24 + x240 + x241 + x242 + x243 + x244 + x245 + x246
 + x247 + x248 + x249 + x25 + x250 + x251 + x252 + x253 + x254 + x255 + x256
 + x257 + x258 + x259 + x26 + x260 + x261 + x262 + x263 + x264 + x265 + x266
 + x267 + x268 + x269 + x27 + x270 + x271 + x272 + x273 + x274 + x275 + x276
 + x277 + x278 + x279 + x28 + x280 + x281 + x282 + x283 + x284 + x285 + x286
 + x287 + x288 + x289 + x29 + x290 + x291 + x292 + x293 + x294 + x295 + x296
 + x297 + x298 + x299 + x3 + x30 + x300 + x301 + x302 + x303 + x304 + x305
 + x306 + x307 + x308 + x309 + x31 + x310 + x311 + x312 + x313 + x314 + x315
 + x316 + x317 + x318 + x319 + x32 + x320 + x321 + x322 + x323 + x324 + x325
 + x326 + x327 + x328 + x329 + x33 + x330 + x331 + x332 + x333 + x334 + x335
 + x336 + x337 + x338 + x339 + x34 + x340 + x341 + x342 + x343 + x344 + x345
 + x346 + x347 + x348 + x349 + x35 + x350 + x351 + x352 + x353 + x354 + x355
 + x356 + x357 + x358 + x359 + x36 + x360 + x361 + x362 + x363 + x364 + x365
 + x366 + x367 + x368 + x369 + x37 + x370 + x371 + x372 + x373 + x374 + x375
 + x376 + x377 + x378 + x379 + x38 + x380 + x381 + x382 + x383 + x384 + x385
 + x386 + x387 + x388 + x389 + x39 + x390 + x391 + x392 + x393 + x394 + x395
 + x396 + x397 + x398 + x399 + x4 + x40 + x400 + x401 + x402 + x403 + x404
 + x405 + x406 + x407 + x408 + x409 + x41 + x410 + x411 + x412 + x413 + x414
 + x415 + x416 + x417 + x418 + x419 + x42 + x420 + x421 + x422 + x423 + x424
 + x425 + x426 + x427 + x428 + x429 + x43 + x430 + x431 + x432 + x433 + x434
 + x435 + x436 + x437 + x438 + x439 + x44 + x440 + x441 + x442 + x443 + x444
 + x445 + x446 + x447 + x448 + x449 + x45 + x450 + x451 + x452 + x453 + x454
 + x455 + x456 + x457 + x458 + x459 + x46 + x460 + x461 + x462 + x463 + x464
 + x465 + x466 + x467 + x468 + x469 + x47 + x470 + x471 + x472 + x473 + x474
 + x475 + x476 + x477 + x478 + x479 + x48 + x480 + x481 + x482 + x483 + x484
 + x485 + x486 + x487 + x488 + x489 + x49 + x490 + x491 + x492 + x493 + x494
 + x495 + x496 + x497 + x498 + x499 + x5 + x50 + x500 + x501 + x502 + x503
 + x504 + x505 + x506 + x507 + x508 + x509 + x51 + x510 + x511 + x512 + x513
 + x514 + x515 + x516 + x517 + x518 + x519 + x52 + x520 + x521 + x53 + x54
 + x55 + x56 + x57 + x58 + x59 + x6 + x60 + x61 + x62 + x63 + x64 + x65 + x66
 + x67 + x68 + x69 + x7 + x70 + x71 + x72 + x73 + x74 + x75 + x76 + x77 + x78
 + x79 + x8 + x80 + x81 + x82 + x83 + x84 + x85 + x86 + x87 + x88 + x89 + x9
 + x90 + x91 + x92 + x93 + x94 + x95 + x96 + x97 + x98 + x99 = 9
_C20: x129 - x205 - x221 - x319 - x324 - x325 - x98 <= 0
_C200: 4 x52 <= 10
_C201: 5 x81 <= 10
_C202: x131 + x2 + x21 + x268 + x281 + x4 + x423 + x52 + x81 <= 3
_C203: 4 x161 <= 10
_C204: 5 x163 <= 10
_C205: 3 x199 <= 10
_C206: 7 x21 <= 10
_C207: 18 x281 <= 10
_C208: 7 x386 <= 10
_C209: 5 x43 <= 10
_C21: x17 - x18 - x260 - x372 - x375 - x6 <= 0
_C210: 6 x46 <= 10
_C211: 2 x51 <= 10
_C212: x161 + x163 + x199 + x21 + x281 + x386 + x43 + x46 + x51 <= 3
_C213: 6 x21 <= 10
_C214: 19 x219 <= 10
_C215: 2 x30 <= 10
_C216: 6 x302 <= 10
_C217: 3 x36 <= 10
_C218: 8 x386 <= 10
_C219: 6 x4 <= 10
_C22: x15 - x273 - x410 - x411 - x46 - x59 - x9 <= 0
_C220: 6 x46 <= 10
_C221: 3 x63 <= 10
_C222: x21 + x219 + x30 + x302 + x36 + x386 + x4 + x46 + x63 <= 3
_C223: 6 x10 <= 10
_C224: 6 x127 <= 10
_C225: 2 x163 <= 10
_C226: 4 x2 <= 10
_C227: 8 x21 <= 10
_C228: 20 x287 <= 10
_C229: 7 x302 <= 10
_C23: - x251 - x253 + x37 - x388 - x40 - x93 <= 0
_C230: 4 x36 <= 10
_C231: 9 x82 <= 10
_C232: x10 + x127 + x163 + x2 + x21 + x287 + x302 + x36 + x82 <= 3
_C233: 2 x161 <= 10
_C234: 6 x21 <= 10
_C235: 21 x378 <= 10
_C236: 6 x4 <= 10
_C237: 7 x423 <= 10
_C238: 5 x70 <= 10
_C239: 4 x85 <= 10
_C24: - x268 - x279 - x327 - x329 - x331 - x35 + x52 <= 0
_C240: 8 x9 <= 10
_C241: 5 x92 <= 10
_C242: x161 + x21 + x378 + x4 + x423 + x70 + x85 + x9 + x92 <= 3
_C243: 4 x101 <= 10
_C244: 2 x131 <= 10
_C245: 8 x155 <= 10
_C246: 2 x2 <= 10
_C247: 9 x21 <= 10
_C248: 22 x386 <= 10
_C249: 7 x50 <= 10
_C25: - x131 - x235 - x328 - x330 - x332 + x42 - x53 <= 0
_C250: 4 x51 <= 10
_C251: 7 x54 <= 10
_C252: x101 + x131 + x155 + x2 + x21 + x386 + x50 + x51 + x54 <= 3
_C253: 5 x100 <= 10
_C254: 2 x161 <= 10
_C255: 7 x199 <= 10
_C256: 8 x21 <= 10
_C257: 23 x288 <= 10
_C258: 5 x30 <= 10
_C259: 7 x36 <= 10
_C26: x12 + x237 + x357 + x362 + x91 >= 0
_C260: 10 x423 <= 10
_C261: 6 x79 <= 10
_C262: x100 + x161 + x199 + x21 + x288 + x30 + x36 + x423 + x79 <= 3
_C263: 2 x15 <= 10
_C264: 2 x161 <= 10
_C265: 8 x199 <= 10
_C266: 9 x2 <= 10
_C267: 10 x21 <= 10
_C268: 24 x224 <= 10
_C269: 2 x302 <= 10
_C27: - x100 - x166 - x168 - x266 - x293 - x295 - x296 + x79 <= 0
_C270: 5 x341 <= 10
_C271: 2 x9 <= 10
_C272: x15 + x161 + x199 + x2 + x21 + x224 + x302 + x341 + x9 <= 3
_C273: 6 x101 <= 10
_C274: 3 x161 <= 10
_C275: 9 x21 <= 10
_C276: 25 x341 <= 10
_C277: 3 x46 <= 10
_C278: 4 x50 <= 10
_C279: 5 x63 <= 10
_C28: - x104 - x230 - x247 - x258 - x369 + x48 - x49 <= 0
_C280: 7 x81 <= 10
_C281: 5 x85 <= 10
_C282: x101 + x161 + x21 + x341 + x46 + x50 + x63 + x81 + x85 <= 3
_C283: 9 x10 <= 10
_C284: 7 x21 <= 10
_C285: 26 x279 <= 10
_C286: 2 x30 <= 10
_C287: 8 x302 <= 10
_C288: 6 x423 <= 10
_C289: 7 x52 <= 10
_C29: x112 + x135 - x177 - x310 - x311 - x312 - x316 - x69 <= 0
_C290: 6 x6 <= 10
_C291: 2 x85 <= 10
_C292: x10 + x21 + x279 + x30 + x302 + x423 + x52 + x6 + x85 <= 3
_C293: 10 x161 <= 10
_C294: 10 x2 <= 10
_C295: 11 x21 <= 10
_C296: 27 x247 <= 10
_C297: 2 x274 <= 10
_C298: 2 x30 <= 10
_C299: 9 x48 <= 10
_C3: - x270 - x343 - x344 - x348 - x349 - x36 + x63 - x85 <= 0
_C30: - x219 - x278 - x29 - x314 - x317 + x38 - x84 <= 0
_C300: 2 x70 <= 10
_C301: 5 x81 <= 10
_C302: x161 + x2 + x21 + x247 + x274 + x30 + x48 + x70 + x81 <= 3
_C303: 6 x127 <= 10
_C304: 3 x131 <= 10
_C305: 9 x2 <= 10
_C306: 12 x30 <= 10
_C307: 10 x36 <= 10
_C308: 11 x42 <= 10
_C309: 4 x423 <= 10
_C31: x123 - x254 - x394 - x401 - x402 - x403 - x95 <= 0
_C310: 8 x70 <= 10
_C311: 6 x85 <= 10
_C312: x127 + x131 + x2 + x30 + x36 + x42 + x423 + x70 + x85 <= 3
_C313: 11 x101 <= 10
_C314: 4 x161 <= 10
_C315: 11 x163 <= 10
_C316: 5 x199 <= 10
_C317: 10 x2 <= 10
_C318: 13 x274 <= 10
_C319: 3 x36 <= 10
_C32: x150 - x163 - x252 - x263 - x391 - x392 - x393 - x77 + x82 <= 0
_C320: 12 x4 <= 10
_C321: 8 x63 <= 10
_C322: x101 + x161 + x163 + x199 + x2 + x274 + x36 + x4 + x63 <= 3
_C323: 8 x100 <= 10
_C324: 3 x161 <= 10
_C325: 12 x19 <= 10
_C326: 3 x2 <= 10
_C327: 14 x302 <= 10
_C328: 7 x423 <= 10
_C329: 9 x43 <= 10
_C33: x102 + x108 + x109 + x11 + x112 + x114 + x115 + x117 + x118 + x119
 + x120 + x122 + x123 + x126 + x129 + x132 + x135 + x136 + x137 + x138 + x139
 + x14 + x141 + x143 + x144 + x145 + x149 + x15 + x150 + x153 + x154 + x156
 + x162 + x167 + x169 + x17 + x170 + x171 + x172 + x174 + x178 + x180 + x182
 + x183 + x185 + x188 + x189 + x192 + x193 + x194 + x200 + x23 + x25 + x28
 + x31 + x34 + x37 + x38 + x41 + x42 + x47 + x48 + x51 + x52 + x58 + x60 + x63
 + x66 + x68 + x72 + x73 + x79 + x8 + x82 + x87 + x92 <= 1
_C330: 7 x63 <= 10
_C331: 9 x85 <= 10
_C332: x100 + x161 + x19 + x2 + x302 + x423 + x43 + x63 + x85 <= 3
_C333: 12 x125 <= 10
_C334: 2 x161 <= 10
_C335: 13 x199 <= 10
_C336: 11 x2 <= 10
_C337: 15 x232 <= 10
_C338: 2 x51 <= 10
_C339: 8 x6 <= 10
_C34: x102 + x108 + x109 + x11 + x112 + x114 + x115 + x117 + x118 + x119
 + x120 + x122 + x123 + x126 + x129 + x132 + x135 + x136 + x137 + x138 + x139
 + x14 + x141 + x143 + x144 + x145 + x149 + x15 + x150 + x153 + x154 + x156
 + x162 + x167 + x169 + x17 + x170 + x171 + x172 + x174 + x178 + x180 + x182
 + x183 + x185 + x188 + x189 + x192 + x193 + x194 + x200 + x23 + x25 + x28
 + x31 + x34 + x37 + x38 + x41 + x42 + x47 + x48 + x51 + x52 + x58 + x60 + x63
 + x66 + x68 + x72 + x73 + x79 + x8 + x82 + x87 + x92 >= 1
_C340: 3 x70 <= 10
_C341: 7 x85 <= 10
_C342: x125 + x161 + x199 + x2 + x232 + x51 + x6 + x70 + x85 <= 3
_C343: 13 x10 <= 10
_C344: 8 x146 <= 10
_C345: 2 x155 <= 10
_C346: 3 x161 <= 10
_C347: 14 x36 <= 10
_C348: 13 x423 <= 10
_C349: 10 x51 <= 10
_C35: x0 + x1 + x10 + x103 + x105 + x110 + x111 + x116 + x121 + x125 + x127
 + x130 + x133 + x134 + x140 + x147 + x148 + x151 + x157 + x16 + x160 + x161
 + x164 + x165 + x173 + x175 + x176 + x179 + x181 + x186 + x187 + x19 + x190
 + x191 + x198 + x202 + x206 + x207 + x208 + x21 + x211 + x214 + x215 + x216
 + x218 + x22 + x220 + x222 + x223 + x224 + x225 + x226 + x227 + x228 + x231
 + x233 + x241 + x244 + x245 + x249 + x250 + x256 + x257 + x265 + x272 + x275
 + x280 + x286 + x294 + x297 + x30 + x300 + x301 + x303 + x308 + x309 + x313
 + x315 + x32 + x320 + x321 + x322 + x323 + x326 + x33 + x333 + x334 + x336
 + x337 + x338 + x340 + x346 + x347 + x351 + x353 + x356 + x360 + x361 + x364
 + x366 + x368 + x370 + x380 + x382 + x389 + x39 + x390 + x395 + x396 + x398
 + x399 + x4 + x405 + x408 + x409 + x412 + x418 + x419 + x420 + x43 + x44
 + x50 + x54 + x56 + x62 + x71 + x74 + x78 + x86 + x89 + x90 + x96 + x97 >= 2
_C350: 9 x54 <= 10
_C351: 6 x85 <= 10
_C352: x10 + x146 + x155 + x161 + x36 + x423 + x51 + x54 + x85 <= 3
_C353: 14 x100 <= 10
_C354: 4 x131 <= 10
_C355: 10 x440 <= 10
_C356: 2 x50 <= 10
_C357: 6 x54 <= 10
_C358: 7 x63 <= 10
_C359: 10 x70 <= 10
_C36: x0 + x1 + x10 + x103 + x105 + x110 + x111 + x116 + x121 + x125 + x127
 + x130 + x133 + x134 + x140 + x147 + x148 + x151 + x157 + x16 + x160 + x161
 + x164 + x165 + x173 + x175 + x176 + x179 + x181 + x186 + x187 + x19 + x190
 + x191 + x198 + x202 + x206 + x207 + x208 + x21 + x211 + x214 + x215 + x216
 + x218 + x22 + x220 + x222 + x223 + x224 + x225 + x226 + x227 + x228 + x231
 + x233 + x241 + x244 + x245 + x249 + x250 + x256 + x257 + x265 + x272 + x275
 + x280 + x286 + x294 + x297 + x30 + x300 + x301 + x303 + x308 + x309 + x313
 + x315 + x32 + x320 + x321 + x322 + x323 + x326 + x33 + x333 + x334 + x336
 + x337 + x338 + x340 + x346 + x347 + x351 + x353 + x356 + x360 + x361 + x364
 + x366 + x368 + x370 + x380 + x382 + x389 + x39 + x390 + x395 + x396 + x398
 + x399 + x4 + x405 + x408 + x409 + x412 + x418 + x419 + x420 + x43 + x44
 + x50 + x54 + x56 + x62 + x71 + x74 + x78 + x86 + x89 + x90 + x96 + x97 <= 3
_C360: 8 x85 <= 10
_C361: 15 x9 <= 10
_C362: x100 + x131 + x440 + x50 + x54 + x63 + x70 + x85 + x9 <= 3
_C363: 7 x161 <= 10
_C364: 15 x327 <= 10
_C365: 2 x426 <= 10
_C366: 2 x43 <= 10
_C367: 8 x46 <= 10
_C368: 5 x52 <= 10
_C369: 7 x54 <= 10
_C37: x100 + x104 + x106 + x107 + x113 + x12 + x124 + x128 + x13 + x131 + x142
 + x152 + x155 + x159 + x163 + x166 + x168 + x177 + x18 + x184 + x196 + x197
 + x199 + x2 + x201 + x203 + x204 + x205 + x209 + x210 + x212 + x213 + x219
 + x221 + x230 + x234 + x235 + x236 + x237 + x239 + x24 + x240 + x242 + x243
 + x246 + x247 + x251 + x252 + x253 + x254 + x258 + x259 + x26 + x260 + x263
 + x266 + x268 + x269 + x27 + x270 + x273 + x276 + x277 + x278 + x279 + x283
 + x285 + x289 + x29 + x290 + x291 + x292 + x293 + x295 + x296 + x298 + x299
 + x3 + x304 + x305 + x306 + x307 + x310 + x311 + x312 + x314 + x316 + x317
 + x318 + x319 + x324 + x325 + x327 + x328 + x329 + x330 + x331 + x332 + x335
 + x339 + x342 + x343 + x344 + x345 + x348 + x349 + x35 + x350 + x352 + x355
 + x357 + x358 + x359 + x36 + x362 + x365 + x367 + x369 + x371 + x372 + x373
 + x374 + x375 + x376 + x377 + x378 + x379 + x381 + x383 + x384 + x385 + x388
 + x391 + x392 + x393 + x394 + x397 + x40 + x400 + x401 + x402 + x403 + x404
 + x406 + x407 + x410 + x411 + x413 + x414 + x415 + x416 + x45 + x46 + x49
 + x5 + x53 + x55 + x57 + x59 + x6 + x64 + x65 + x67 + x69 + x7 + x75 + x77
 + x81 + x83 + x84 + x85 + x88 + x9 + x91 + x93 + x95 + x98 + x99 >= 3
_C370: 8 x70 <= 10
_C371: 9 x85 <= 10
_C372: x161 + x327 + x426 + x43 + x46 + x52 + x54 + x70 + x85 <= 3
_C373: 16 x127 <= 10
_C374: 4 x131 <= 10
_C375: 11 x146 <= 10
_C376: 3 x161 <= 10
_C377: 16 x426 <= 10
_C378: 3 x44 <= 10
_C379: 2 x6 <= 10
_C38: x100 + x104 + x106 + x107 + x113 + x12 + x124 + x128 + x13 + x131 + x142
 + x152 + x155 + x159 + x163 + x166 + x168 + x177 + x18 + x184 + x196 + x197
 + x199 + x2 + x201 + x203 + x204 + x205 + x209 + x210 + x212 + x213 + x219
 + x221 + x230 + x234 + x235 + x236 + x237 + x239 + x24 + x240 + x242 + x243
 + x246 + x247 + x251 + x252 + x253 + x254 + x258 + x259 + x26 + x260 + x263
 + x266 + x268 + x269 + x27 + x270 + x273 + x276 + x277 + x278 + x279 + x283
 + x285 + x289 + x29 + x290 + x291 + x292 + x293 + x295 + x296 + x298 + x299
 + x3 + x304 + x305 + x306 + x307 + x310 + x311 + x312 + x314 + x316 + x317
 + x318 + x319 + x324 + x325 + x327 + x328 + x329 + x330 + x331 + x332 + x335
 + x339 + x342 + x343 + x344 + x345 + x348 + x349 + x35 + x350 + x352 + x355
 + x357 + x358 + x359 + x36 + x362 + x365 + x367 + x369 + x371 + x372 + x373
 + x374 + x375 + x376 + x377 + x378 + x379 + x381 + x383 + x384 + x385 + x388
 + x391 + x392 + x393 + x394 + x397 + x40 + x400 + x401 + x402 + x403 + x404
 + x406 + x407 + x410 + x411 + x413 + x414 + x415 + x416 + x45 + x46 + x49
 + x5 + x53 + x55 + x57 + x59 + x6 + x64 + x65 + x67 + x69 + x7 + x75 + x77
 + x81 + x83 + x84 + x85 + x88 + x9 + x91 + x93 + x95 + x98 + x99 <= 4
_C380: 4 x63 <= 10
_C381: 11 x85 <= 10
_C382: x127 + x131 + x146 + x161 + x426 + x44 + x6 + x63 + x85 <= 3
_C383: 17 x131 <= 10
_C384: 12 x155 <= 10
_C385: 4 x161 <= 10
_C386: 17 x43 <= 10
_C387: 9 x44 <= 10
_C388: 3 x440 <= 10
_C389: 3 x51 <= 10
_C39: x101 + x146 + x20 + x217 + x238 + x255 + x262 + x271 + x281 + x284
 + x288 + x302 + x354 + x363 + x387 + x417 + x421 + x424 + x425 + x428 + x430
 + x432 + x433 + x434 + x435 + x436 + x437 + x439 + x441 + x442 + x443 + x444
 + x445 + x446 + x447 + x448 + x449 + x450 + x451 + x452 + x453 + x454 + x455
 + x456 + x457 + x458 + x459 + x460 + x461 + x462 + x463 + x464 + x465 + x466
 + x468 + x469 + x470 + x471 + x472 + x473 + x474 + x475 + x476 + x477 + x478
 + x479 + x480 + x481 + x482 + x483 + x484 + x485 + x486 + x487 + x488 + x489
 + x490 + x491 + x492 + x493 + x494 + x495 + x496 + x497 + x498 + x499 + x500
 + x501 + x502 + x503 + x504 + x505 + x507 + x508 + x509 + x510 + x511 + x512
 + x513 + x514 + x61 + x70 + x76 + x80 + x94 >= 1
_C390: 10 x70 <= 10
_C391: 10 x81 <= 10
_C392: x131 + x155 + x161 + x43 + x44 + x440 + x51 + x70 + x81 <= 3
_C393: 7 x161 <= 10
_C394: 18 x45 <= 10
_C395: 2 x50 <= 10
_C396: 7 x518 <= 10
_C397: 2 x54 <= 10
_C398: 9 x6 <= 10
_C399: 5 x70 <= 10
_C4: x212 + x365 + x367 + x65 + x67 >= 0
_C40: x101 + x146 + x20 + x217 + x238 + x255 + x262 + x271 + x281 + x284
 + x288 + x302 + x354 + x363 + x387 + x417 + x421 + x424 + x425 + x428 + x430
 + x432 + x433 + x434 + x435 + x436 + x437 + x439 + x441 + x442 + x443 + x444
 + x445 + x446 + x447 + x448 + x449 + x450 + x451 + x452 + x453 + x454 + x455
 + x456 + x457 + x458 + x459 + x460 + x461 + x462 + x463 + x464 + x465 + x466
 + x468 + x469 + x470 + x471 + x472 + x473 + x474 + x475 + x476 + x477 + x478
 + x479 + x480 + x481 + x482 + x483 + x484 + x485 + x486 + x487 + x488 + x489
 + x490 + x491 + x492 + x493 + x494 + x495 + x496 + x497 + x498 + x499 + x500
 + x501 + x502 + x503 + x504 + x505 + x507 + x508 + x509 + x510 + x511 + x512
 + x513 + x514 + x61 + x70 + x76 + x80 + x94 <= 2
_C400: 11 x81 <= 10
_C401: 8 x92 <= 10
_C402: x161 + x45 + x50 + x518 + x54 + x6 + x70 + x81 + x92 <= 3
_C403: 5 x15 <= 10
_C404: 3 x161 <= 10
_C405: 19 x18 <= 10
_C406: 2 x271 <= 10
_C407: 2 x440 <= 10
_C408: 4 x46 <= 10
_C409: 6 x49 <= 10
_C41: x158 + x195 + x229 + x232 + x248 + x261 + x264 + x267 + x274 + x282
 + x287 + x341 + x386 + x422 + x423 + x426 + x427 + x429 + x431 + x438 + x440
 + x467 + x506 + x515 + x516 + x517 + x518 + x519 + x520 + x521 <= 1
_C410: 2 x50 <= 10
_C411: 8 x54 <= 10
_C412: x15 + x161 + x18 + x271 + x440 + x46 + x49 + x50 + x54 <= 3
_C413: 10 x159 <= 10
_C414: 2 x161 <= 10
_C415: 20 x198 <= 10
_C416: 2 x31 <= 10
_C417: 2 x440 <= 10
_C418: 5 x54 <= 10
_C419: 11 x70 <= 10
_C42: x158 + x195 + x229 + x232 + x248 + x261 + x264 + x267 + x274 + x282
 + x287 + x341 + x386 + x422 + x423 + x426 + x427 + x429 + x431 + x438 + x440
 + x467 + x506 + x515 + x516 + x517 + x518 + x519 + x520 + x521 >= 1
_C420: 12 x83 <= 10
_C421: 2 x95 <= 10
_C422: x159 + x161 + x198 + x31 + x440 + x54 + x70 + x83 + x95 <= 3
_C423: 2 x161 <= 10
_C424: 21 x416 <= 10
_C425: 2 x429 <= 10
_C426: 2 x436 <= 10
_C427: 2 x44 <= 10
_C428: 4 x46 <= 10
_C429: 7 x51 <= 10
_C43: 2 x161 <= 10
_C430: 11 x54 <= 10
_C431: 12 x6 <= 10
_C432: x161 + x416 + x429 + x436 + x44 + x46 + x51 + x54 + x6 <= 3
_C433: 6 x161 <= 10
_C434: 22 x331 <= 10
_C435: 2 x44 <= 10
_C436: 5 x46 <= 10
_C437: 8 x50 <= 10
_C438: 9 x518 <= 10
_C439: 3 x52 <= 10
_C44: 2 x2 <= 10
_C440: 8 x80 <= 10
_C441: 2 x95 <= 10
_C442: x161 + x331 + x44 + x46 + x50 + x518 + x52 + x80 + x95 <= 3
_C443: 3 x0 <= 10
_C444: 2 x161 <= 10
_C445: 23 x242 <= 10
_C446: 2 x29 <= 10
_C447: 2 x329 <= 10
_C448: 2 x436 <= 10
_C449: 3 x440 <= 10
_C45: 2 x21 <= 10
_C450: 6 x50 <= 10
_C451: 10 x52 <= 10
_C452: x0 + x161 + x242 + x29 + x329 + x436 + x440 + x50 + x52 <= 3
_C453: 9 x159 <= 10
_C454: 3 x161 <= 10
_C455: 24 x29 <= 10
_C456: 3 x31 <= 10
_C457: 3 x429 <= 10
_C458: 3 x46 <= 10
_C459: 9 x50 <= 10
_C46: 2 x255 <= 10
_C460: 11 x76 <= 10
_C461: 2 x78 <= 10
_C462: x159 + x161 + x29 + x31 + x429 + x46 + x50 + x76 + x78 <= 3
_C463: 2 x159 <= 10
_C464: 4 x161 <= 10
_C465: 25 x213 <= 10
_C466: 2 x284 <= 10
_C467: 2 x344 <= 10
_C468: 2 x44 <= 10
_C469: 6 x440 <= 10
_C47: 2 x35 <= 10
_C470: 7 x50 <= 10
_C471: 12 x63 <= 10
_C472: x159 + x161 + x213 + x284 + x344 + x44 + x440 + x50 + x63 <= 3
_C473: 12 x124 <= 10
_C474: 2 x14 <= 10
_C475: 2 x161 <= 10
_C476: 26 x240 <= 10
_C477: 2 x427 <= 10
_C478: 2 x436 <= 10
_C479: 4 x46 <= 10
_C48: 2 x36 <= 10
_C480: 10 x50 <= 10
_C481: 13 x96 <= 10
_C482: x124 + x14 + x161 + x240 + x427 + x436 + x46 + x50 + x96 <= 3
_C483: 2 x14 <= 10
_C484: 3 x161 <= 10
_C485: 27 x3 <= 10
_C486: 2 x40 <= 10
_C487: 2 x440 <= 10
_C488: 8 x445 <= 10
_C489: 2 x50 <= 10
_C49: 2 x386 <= 10
_C490: 14 x78 <= 10
_C491: 3 x95 <= 10
_C492: x14 + x161 + x3 + x40 + x440 + x445 + x50 + x78 + x95 <= 3
_C493: 4 x0 <= 10
_C494: 3 x107 <= 10
_C495: 2 x161 <= 10
_C496: 28 x31 <= 10
_C497: 4 x40 <= 10
_C498: 3 x424 <= 10
_C499: 2 x44 <= 10
_C5: - x204 - x242 - x277 + x28 - x307 - x55 <= 0
_C50: 2 x52 <= 10
_C500: 7 x440 <= 10
_C501: 9 x46 <= 10
_C502: x0 + x107 + x161 + x31 + x40 + x424 + x44 + x440 + x46 <= 3
_C503: 11 x106 <= 10
_C504: 2 x158 <= 10
_C505: 2 x161 <= 10
_C506: 29 x40 <= 10
_C507: 4 x436 <= 10
_C508: 5 x44 <= 10
_C509: 8 x48 <= 10
_C51: 2 x85 <= 10
_C510: 3 x49 <= 10
_C511: 3 x50 <= 10
_C512: x106 + x158 + x161 + x40 + x436 + x44 + x48 + x49 + x50 <= 3
_C513: 15 x0 <= 10
_C514: 4 x161 <= 10
_C515: 30 x284 <= 10
_C516: 3 x429 <= 10
_C517: 4 x49 <= 10
_C518: 4 x50 <= 10
_C519: 16 x77 <= 10
_C52: x161 + x2 + x21 + x255 + x35 + x36 + x386 + x52 + x85 <= 3
_C520: 2 x82 <= 10
_C521: 3 x95 <= 10
_C522: x0 + x161 + x284 + x429 + x49 + x50 + x77 + x82 + x95 <= 3
_C523: 5 x159 <= 10
_C524: 5 x161 <= 10
_C525: 31 x271 <= 10
_C526: 3 x329 <= 10
_C527: 3 x429 <= 10
_C528: 5 x44 <= 10
_C529: 9 x49 <= 10
_C53: 2 x199 <= 10
_C530: 5 x52 <= 10
_C531: 10 x56 <= 10
_C532: x159 + x161 + x271 + x329 + x429 + x44 + x49 + x52 + x56 <= 3
_C533: 2 x15 <= 10
_C534: 4 x158 <= 10
_C535: 3 x159 <= 10
_C536: 6 x161 <= 10
_C537: 32 x218 <= 10
_C538: 2 x436 <= 10
_C539: 6 x46 <= 10
_C54: 2 x2 <= 10
_C540: 12 x56 <= 10
_C541: 3 x95 <= 10
_C542: x15 + x158 + x159 + x161 + x218 + x436 + x46 + x56 + x95 <= 3
_C543: 6 x107 <= 10
_C544: 3 x158 <= 10
_C545: 4 x161 <= 10
_C546: 33 x445 <= 10
_C547: 3 x46 <= 10
_C548: 13 x50 <= 10
_C549: 17 x75 <= 10
_C55: 3 x21 <= 10
_C550: 2 x90 <= 10
_C551: 2 x92 <= 10
_C552: x107 + x158 + x161 + x445 + x46 + x50 + x75 + x90 + x92 <= 3
_C553: 6 x159 <= 10
_C554: 7 x16 <= 10
_C555: 2 x161 <= 10
_C556: 34 x427 <= 10
_C557: 3 x46 <= 10
_C558: 14 x48 <= 10
_C559: 4 x49 <= 10
_C56: 3 x281 <= 10
_C560: 6 x80 <= 10
_C561: 3 x90 <= 10
_C562: x159 + x16 + x161 + x427 + x46 + x48 + x49 + x80 + x90 <= 3
_C563: 3 x161 <= 10
_C564: 35 x203 <= 10
_C565: 2 x44 <= 10
_C566: 10 x440 <= 10
_C567: 10 x49 <= 10
_C568: 7 x505 <= 10
_C569: 2 x68 <= 10
_C57: 2 x287 <= 10
_C570: 2 x90 <= 10
_C571: 4 x95 <= 10
_C572: x161 + x203 + x44 + x440 + x49 + x505 + x68 + x90 + x95 <= 3
_C573: 7 x107 <= 10
_C574: 4 x130 <= 10
_C575: 2 x15 <= 10
_C576: 5 x161 <= 10
_C577: 36 x220 <= 10
_C578: 2 x429 <= 10
_C579: 6 x46 <= 10
_C58: 2 x30 <= 10
_C580: 15 x5 <= 10
_C581: 2 x80 <= 10
_C582: x107 + x130 + x15 + x161 + x220 + x429 + x46 + x5 + x80 <= 3
_C583: 4 x130 <= 10
_C584: 3 x16 <= 10
_C585: 3 x161 <= 10
_C586: 37 x217 <= 10
_C587: 2 x415 <= 10
_C588: 2 x440 <= 10
_C589: 11 x46 <= 10
_C59: 2 x54 <= 10
_C590: 16 x51 <= 10
_C591: 12 x95 <= 10
_C592: x130 + x16 + x161 + x217 + x415 + x440 + x46 + x51 + x95 <= 3
_C593: 8 x107 <= 10
_C594: 5 x130 <= 10
_C595: 4 x159 <= 10
_C596: 8 x161 <= 10
_C597: 38 x263 <= 10
_C598: 2 x436 <= 10
_C599: 7 x440 <= 10
_C6: - x124 + x14 - x197 - x3 - x404 - x406 - x407 <= 0
_C60: 2 x63 <= 10
_C600: 12 x49 <= 10
_C601: 8 x82 <= 10
_C602: x107 + x130 + x159 + x161 + x263 + x436 + x440 + x49 + x82 <= 3
_C603: 4 x104 <= 10
_C604: 2 x15 <= 10
_C605: 6 x16 <= 10
_C606: 4 x161 <= 10
_C607: 39 x251 <= 10
_C608: 2 x436 <= 10
_C609: 8 x44 <= 10
_C61: 2 x85 <= 10
_C610: 11 x440 <= 10
_C611: 13 x59 <= 10
_C612: x104 + x15 + x16 + x161 + x251 + x436 + x44 + x440 + x59 <= 3
_C613: 2 x104 <= 10
_C614: 3 x107 <= 10
_C615: 6 x16 <= 10
_C616: 5 x161 <= 10
_C617: 40 x329 <= 10
_C618: 4 x424 <= 10
_C619: 3 x518 <= 10
_C62: x199 + x2 + x21 + x281 + x287 + x30 + x54 + x63 + x85 <= 3
_C620: 4 x52 <= 10
_C621: 11 x90 <= 10
_C622: x104 + x107 + x16 + x161 + x329 + x424 + x518 + x52 + x90 <= 3
_C623: 5 x107 <= 10
_C624: 7 x158 <= 10
_C625: 5 x159 <= 10
_C626: 9 x161 <= 10
_C627: 41 x17 <= 10
_C628: 2 x260 <= 10
_C629: 2 x44 <= 10
_C63: 3 x21 <= 10
_C630: 12 x80 <= 10
_C631: 5 x89 <= 10
_C632: x107 + x158 + x159 + x161 + x17 + x260 + x44 + x80 + x89 <= 3
_C633: 2 x104 <= 10
_C634: 4 x130 <= 10
_C635: 5 x14 <= 10
_C636: 4 x159 <= 10
_C637: 10 x161 <= 10
_C638: 42 x197 <= 10
_C639: 2 x44 <= 10
_C64: 4 x24 <= 10
_C640: 13 x505 <= 10
_C641: 3 x518 <= 10
_C642: x104 + x130 + x14 + x159 + x161 + x197 + x44 + x505 + x518 <= 3
_C65: 2 x262 <= 10
_C66: 2 x281 <= 10
_C67: 3 x287 <= 10
_C68: 3 x35 <= 10
_C69: 3 x36 <= 10
_C7: - x155 - x199 - x24 - x415 - x416 + x51 <= 0
_C70: 3 x4 <= 10
_C71: 2 x51 <= 10
_C72: x21 + x24 + x262 + x281 + x287 + x35 + x36 + x4 + x51 <= 3
_C73: 2 x131 <= 10
_C74: 2 x199 <= 10
_C75: 3 x21 <= 10
_C76: 5 x229 <= 10
_C77: 2 x24 <= 10
_C78: 3 x30 <= 10
_C79: 3 x35 <= 10
_C8: x120 - x213 - x239 - x259 - x283 - x371 - x373 - x374 - x376 <= 0
_C80: 4 x52 <= 10
_C81: 3 x70 <= 10
_C82: x131 + x199 + x21 + x229 + x24 + x30 + x35 + x52 + x70 <= 3
_C83: 2 x10 <= 10
_C84: 2 x199 <= 10
_C85: 4 x2 <= 10
_C86: 4 x21 <= 10
_C87: 6 x24 <= 10
_C88: 4 x255 <= 10
_C89: 3 x378 <= 10
_C9: - x378 - x379 - x381 - x384 - x45 - x75 + x92 <= 0
_C90: 2 x423 <= 10
_C91: 2 x51 <= 10
_C92: x10 + x199 + x2 + x21 + x24 + x255 + x378 + x423 + x51 <= 3
_C93: 3 x10 <= 10
_C94: 3 x131 <= 10
_C95: 3 x161 <= 10
_C96: 3 x21 <= 10
_C97: 7 x229 <= 10
_C98: 3 x281 <= 10
_C99: 4 x36 <= 10
Binaries
x0
x1
x10
x100
x101
x102
x103
x104
x105
x106
x107
x108
x109
x11
x110
x111
x112
x113
x114
x115
x116
x117
x118
x119
x12
x120
x121
x122
x123
x124
x125
x126
x127
x128
x129
x13
x130
x131
x132
x133
x134
x135
x136
x137
x138
x139
x14
x140
x141
x142
x143
x144
x145
x146
x147
x148
x149
x15
x150
x151
x152
x153
x154
x155
x156
x157
x158
x159
x16
x160
x161
x162
x163
x164
x165
x166
x167
x168
x169
x17
x170
x171
x172
x173
x174
x175
x176
x177
x178
x179
x18
x180
x181
x182
x183
x184
x185
x186
x187
x188
x189
x19
x190
x191
x192
x193
x194
x195
x196
x197
x198
x199
x2
x20
x200
x201
x202
x203
x204
x205
x206
x207
x208
x209
x21
x210
x211
x212
x213
x214
x215
x216
x217
x218
x219
x22
x220
x221
x222
x223
x224
x225
x226
x227
x228
x229
x23
x230
x231
x232
x233
x234
x235
x236
x237
x238
x239
x24
x240
x241
x242
x243
x244
x245
x246
x247
x248
x249
x25
x250
x251
x252
x253
x254
x255
x256
x257
x258
x259
x26
x260
x261
x262
x263
x264
x265
x266
x267
x268
x269
x27
x270
x271
x272
x273
x274
x275
x276
x277
x278
x279
x28
x280
x281
x282
x283
x284
x285
x286
x287
x288
x289
x29
x290
x291
x292
x293
x294
x295
x296
x297
x298
x299
x3
x30
x300
x301
x302
x303
x304
x305
x306
x307
x308
x309
x31
x310
x311
x312
x313
x314
x315
x316
x317
x318
x319
x32
x320
x321
x322
x323
x324
x325
x326
x327
x328
x329
x33
x330
x331
x332
x333
x334
x335
x336
x337
x338
x339
x34
x340
x341
x342
x343
x344
x345
x346
x347
x348
x349
x35
x350
x351
x352
x353
x354
x355
x356
x357
x358
x359
x36
x360
x361
x362
x363
x364
x365
x366
x367
x368
x369
x37
x370
x371
x372
x373
x374
x375
x376
x377
x378
x379
x38
x380
x381
x382
x383
x384
x385
x386
x387
x388
x389
x39
x390
x391
x392
x393
x394
x395
x396
x397
x398
x399
x4
x40
x400
x401
x402
x403
x404
x405
x406
x407
x408
x409
x41
x410
x411
x412
x413
x414
x415
x416
x417
x418
x419
x42
x420
x421
x422
x423
x424
x425
x426
x427
x428
x429
x43
x430
x431
x432
x433
x434
x435
x436
x437
x438
x439
x44
x440
x441
x442
x443
x444
x445
x446
x447
x448
x449
x45
x450
x451
x452
x453
x454
x455
x456
x457
x458
x459
x46
x460
x461
x462
x463
x464
x465
x466
x467
x468
x469
x47
x470
x471
x472
x473
x474
x475
x476
x477
x478
x479
x48
x480
x481
x482
x483
x484
x485
x486
x487
x488
x489
x49
x490
x491
x492
x493
x494
x495
x496
x497
x498
x499
x5
x50
x500
x501
x502
x503
x504
x505
x506
x507
x508
x509
x51
x510
x511
x512
x513
x514
x515
x516
x517
x518
x519
x52
x520
x521
x53
x54
x55
x56
x57
x58
x59
x6
x60
x61
x62
x63
x64
x65
x66
x67
x68
x69
x7
x70
x71
x72
x73
x74
x75
x76
x77
x78
x79
x8
x80
x81
x82
x83
x84
x85
x86
x87
x88
x89
x9
x90
x91
x92
x93
x94
x95
x96
x97
x98
x99
End
